
%FILE DATA:	Soccer Computational Problem for MiniZinc Models	%
%AUTHOR:	Jack Wall	%
%CONTACT:  	116397063@umail.ucc.ie			%
%LAST UPDATE:	02/10/2020, 13:02:53						%
%DESCRIPTION: 	40 games played with 16 games left				%


n=8; %number of teams

%Games to play
games=[|2,6|7,3|2,3|7,8|4,3|1,2|3,8|8,5|5,1|2,4|2,7|4,2|8,2|5,6|3,1|2,1|];

%Initial points
iPoints=[19,15,13,12,12,14,15,7];

%POSITION CONSTRAINTS
% [|teamID, operator, position|...]
% operators index:
%  1 for =  operator
%  2 for >  operator
%  3 for >= operator
%  4 for <  operator
%  5 for <= operator
positionConstraints=[|7,3,1|2,3,2|1,5,3|];